(set-logic QF_NRA)
(set-info :source |Benchmarks generated from hycomp (https://es-static.fbk.eu/tools/hycomp/). BMC instances of non-linear hybrid automata taken from: Alessandro Cimatti, Sergio Mover, Stefano Tonetta, A quantifier-free SMT encoding of non-linear hybrid automata, FMCAD 2012 and Alessandro Cimatti, Sergio Mover, Stefano Tonetta, Quantier-free encoding of invariants for Hybrid Systems, Formal Methods in System Design. This instance solves a BMC problem of depth 1 and uses the quantifier free encoding with equivalences and lemmas encoding. Contacts: Sergio Mover (mover@fbk.eu), Stefano Tonetta (tonettas@fbk.eu), Alessandro Cimatti (cimatti@fbk.eu).|)
(set-info :smt-lib-version 2.0)
(set-info :category "industrial")
(set-info :status unsat)
;; MathSAT API call trace
;; generated on Mon Mar 19 10:38:34 2012
(declare-fun b.EVENT.0__AT1 () Bool)
(declare-fun b.EVENT.1__AT1 () Bool)
(declare-fun b.counter.3__AT0 () Bool)
(declare-fun b.x__AT0 () Real)
(declare-fun b.speed_y__AT0 () Real)
(declare-fun b.speed_x__AT0 () Real)
(declare-fun b.x__AT1 () Real)
(declare-fun b.EVENT.1__AT0 () Bool)
(declare-fun b.event_is_timed__AT1 () Bool)
(declare-fun b.time__AT0 () Real)
(declare-fun b.speed_x__AT1 () Real)
(declare-fun b.speed_y__AT1 () Real)
(declare-fun b.y__AT0 () Real)
(declare-fun b.counter.0__AT0 () Bool)
(declare-fun b.counter.1__AT0 () Bool)
(declare-fun g__AT0 () Real)
(declare-fun b.event_is_timed__AT0 () Bool)
(declare-fun b.counter.2__AT0 () Bool)
(declare-fun b.time__AT1 () Real)
(declare-fun b.delta__AT1 () Real)
(declare-fun b.delta__AT0 () Real)
(declare-fun b.EVENT.0__AT0 () Bool)
(declare-fun b.y__AT1 () Real)
(declare-fun b.counter.0__AT1 () Bool)
(declare-fun b.counter.1__AT1 () Bool)
(declare-fun b.counter.2__AT1 () Bool)
(declare-fun speed_loss__AT0 () Real)
(declare-fun b.counter.3__AT1 () Bool)
(assert (let ((.def_72 (* (- 1.0) g__AT0)))
(let ((.def_73 (* (/ 1 2) .def_72)))
(let ((.def_80 (* 2.0 .def_73)))
(let ((.def_295 (* .def_80 b.delta__AT1)))
(let ((.def_296 (+ b.speed_y__AT1 .def_295)))
(let ((.def_313 (<= .def_296 0.0 )))
(let ((.def_314 (not .def_313)))
(let ((.def_311 (<= b.speed_y__AT1 0.0 )))
(let ((.def_334 (or .def_311 .def_314)))
(let ((.def_299 (<= 0.0 b.speed_y__AT1)))
(let ((.def_300 (not .def_299)))
(let ((.def_297 (<= 0.0 .def_296)))
(let ((.def_333 (or .def_297 .def_300)))
(let ((.def_335 (and .def_333 .def_334)))
(let ((.def_120 (<= 0.0 g__AT0)))
(let ((.def_336 (or .def_120 .def_335)))
(let ((.def_298 (not .def_297)))
(let ((.def_330 (or .def_298 .def_299)))
(let ((.def_312 (not .def_311)))
(let ((.def_329 (or .def_312 .def_313)))
(let ((.def_331 (and .def_329 .def_330)))
(let ((.def_115 (<= g__AT0 0.0 )))
(let ((.def_332 (or .def_115 .def_331)))
(let ((.def_337 (and .def_332 .def_336)))
(let ((.def_326 (and .def_311 .def_313)))
(let ((.def_325 (and .def_297 .def_299)))
(let ((.def_327 (or .def_325 .def_326)))
(let ((.def_290 (* b.speed_y__AT1 b.delta__AT1)))
(let ((.def_288 (* b.delta__AT1 b.delta__AT1)))
(let ((.def_289 (* .def_73 .def_288)))
(let ((.def_291 (+ .def_289 .def_290)))
(let ((.def_292 (+ b.y__AT1 .def_291)))
(let ((.def_305 (<= .def_292 0.0 )))
(let ((.def_319 (not .def_305)))
(let ((.def_303 (<= b.y__AT1 0.0 )))
(let ((.def_320 (or .def_303 .def_319)))
(let ((.def_278 (<= 0.0 b.y__AT1)))
(let ((.def_317 (not .def_278)))
(let ((.def_293 (<= 0.0 .def_292)))
(let ((.def_318 (or .def_293 .def_317)))
(let ((.def_321 (and .def_318 .def_320)))
(let ((.def_315 (or .def_312 .def_314)))
(let ((.def_316 (not .def_315)))
(let ((.def_322 (or .def_316 .def_321)))
(let ((.def_307 (not .def_293)))
(let ((.def_308 (or .def_278 .def_307)))
(let ((.def_304 (not .def_303)))
(let ((.def_306 (or .def_304 .def_305)))
(let ((.def_309 (and .def_306 .def_308)))
(let ((.def_301 (or .def_298 .def_300)))
(let ((.def_302 (not .def_301)))
(let ((.def_310 (or .def_302 .def_309)))
(let ((.def_323 (and .def_310 .def_322)))
(let ((.def_294 (and .def_278 .def_293)))
(let ((.def_324 (and .def_294 .def_323)))
(let ((.def_328 (and .def_324 .def_327)))
(let ((.def_338 (and .def_328 .def_337)))
(let ((.def_53 (<= g__AT0 10.0 )))
(let ((.def_52 (<= 8.0 g__AT0)))
(let ((.def_54 (and .def_52 .def_53)))
(let ((.def_339 (and .def_54 .def_338)))
(let ((.def_61 (<= speed_loss__AT0 (/ 1 2))))
(let ((.def_58 (<= (/ 1 10) speed_loss__AT0)))
(let ((.def_62 (and .def_58 .def_61)))
(let ((.def_340 (and .def_62 .def_339)))
(let ((.def_28 (not b.counter.0__AT0)))
(let ((.def_282 (or b.counter.1__AT0 .def_28)))
(let ((.def_31 (not b.counter.2__AT0)))
(let ((.def_283 (or .def_31 .def_282)))
(let ((.def_284 (or b.counter.3__AT0 .def_283)))
(let ((.def_63 (and .def_54 .def_62)))
(let ((.def_279 (and .def_63 .def_278)))
(let ((.def_275 (not b.EVENT.0__AT1)))
(let ((.def_273 (not b.EVENT.1__AT1)))
(let ((.def_276 (or .def_273 .def_275)))
(let ((.def_170 (not b.counter.1__AT1)))
(let ((.def_4 (not b.counter.0__AT1)))
(let ((.def_266 (or .def_4 .def_170)))
(let ((.def_270 (or b.counter.3__AT1 .def_266)))
(let ((.def_267 (or b.counter.2__AT1 .def_266)))
(let ((.def_8 (not b.counter.2__AT1)))
(let ((.def_265 (or .def_4 .def_8)))
(let ((.def_268 (and .def_265 .def_267)))
(let ((.def_187 (not b.counter.3__AT1)))
(let ((.def_269 (or .def_187 .def_268)))
(let ((.def_271 (and .def_269 .def_270)))
(let ((.def_277 (and .def_271 .def_276)))
(let ((.def_280 (and .def_277 .def_279)))
(let ((.def_260 (<= 0.0 b.delta__AT0)))
(let ((.def_47 (not b.EVENT.0__AT0)))
(let ((.def_45 (not b.EVENT.1__AT0)))
(let ((.def_159 (and .def_45 .def_47)))
(let ((.def_160 (not .def_159)))
(let ((.def_261 (or .def_160 .def_260)))
(let ((.def_262 (or b.EVENT.1__AT0 .def_261)))
(let ((.def_209 (= b.counter.0__AT1 b.counter.0__AT0)))
(let ((.def_207 (= b.counter.1__AT1 b.counter.1__AT0)))
(let ((.def_205 (= b.counter.2__AT1 b.counter.2__AT0)))
(let ((.def_204 (= b.counter.3__AT1 b.counter.3__AT0)))
(let ((.def_206 (and .def_204 .def_205)))
(let ((.def_208 (and .def_206 .def_207)))
(let ((.def_210 (and .def_208 .def_209)))
(let ((.def_257 (or .def_160 .def_210)))
(let ((.def_258 (or b.EVENT.1__AT0 .def_257)))
(let ((.def_217 (= b.x__AT1 b.x__AT0)))
(let ((.def_214 (= b.y__AT0 b.y__AT1)))
(let ((.def_251 (and .def_214 .def_217)))
(let ((.def_141 (= b.speed_x__AT0 b.speed_x__AT1)))
(let ((.def_252 (and .def_141 .def_251)))
(let ((.def_203 (= b.speed_y__AT0 b.speed_y__AT1)))
(let ((.def_253 (and .def_203 .def_252)))
(let ((.def_248 (= b.delta__AT0 0.0 )))
(let ((.def_249 (and .def_159 .def_248)))
(let ((.def_250 (not .def_249)))
(let ((.def_254 (or .def_250 .def_253)))
(let ((.def_255 (or b.EVENT.1__AT0 .def_254)))
(let ((.def_228 (= b.time__AT0 b.time__AT1)))
(let ((.def_240 (and .def_217 .def_228)))
(let ((.def_241 (and .def_214 .def_240)))
(let ((.def_242 (and .def_141 .def_241)))
(let ((.def_243 (and .def_203 .def_242)))
(let ((.def_244 (and .def_210 .def_243)))
(let ((.def_245 (or .def_45 .def_244)))
(let ((.def_231 (* (- 1.0) b.time__AT1)))
(let ((.def_234 (+ b.delta__AT0 .def_231)))
(let ((.def_235 (+ b.time__AT0 .def_234)))
(let ((.def_236 (= .def_235 0.0 )))
(let ((.def_237 (or .def_160 .def_236)))
(let ((.def_238 (or b.EVENT.1__AT0 .def_237)))
(let ((.def_229 (or .def_159 .def_228)))
(let ((.def_230 (or b.EVENT.1__AT0 .def_229)))
(let ((.def_239 (and .def_230 .def_238)))
(let ((.def_246 (and .def_239 .def_245)))
(let ((.def_224 (= .def_160 b.event_is_timed__AT1)))
(let ((.def_222 (= b.event_is_timed__AT0 .def_159)))
(let ((.def_225 (and .def_222 .def_224)))
(let ((.def_211 (and .def_203 .def_210)))
(let ((.def_162 (= b.y__AT0 0.0 )))
(let ((.def_85 (<= 0.0 b.speed_y__AT0)))
(let ((.def_86 (not .def_85)))
(let ((.def_163 (and .def_86 .def_162)))
(let ((.def_212 (or .def_163 .def_211)))
(let ((.def_179 (or .def_4 b.counter.0__AT0)))
(let ((.def_178 (or b.counter.0__AT1 .def_28)))
(let ((.def_180 (and .def_178 .def_179)))
(let ((.def_181 (and .def_170 .def_180)))
(let ((.def_182 (or b.counter.1__AT0 .def_181)))
(let ((.def_26 (not b.counter.1__AT0)))
(let ((.def_177 (or b.counter.1__AT1 .def_26)))
(let ((.def_183 (and .def_177 .def_182)))
(let ((.def_195 (and .def_8 .def_183)))
(let ((.def_196 (or b.counter.2__AT0 .def_195)))
(let ((.def_190 (and .def_28 .def_170)))
(let ((.def_191 (or b.counter.1__AT0 .def_190)))
(let ((.def_192 (and .def_177 .def_191)))
(let ((.def_193 (and b.counter.2__AT1 .def_192)))
(let ((.def_194 (or .def_31 .def_193)))
(let ((.def_197 (and .def_194 .def_196)))
(let ((.def_198 (and b.counter.3__AT1 .def_197)))
(let ((.def_199 (or b.counter.3__AT0 .def_198)))
(let ((.def_184 (and b.counter.2__AT1 .def_183)))
(let ((.def_185 (or b.counter.2__AT0 .def_184)))
(let ((.def_173 (or b.counter.1__AT1 b.counter.1__AT0)))
(let ((.def_171 (and b.counter.0__AT1 .def_170)))
(let ((.def_172 (or .def_26 .def_171)))
(let ((.def_174 (and .def_172 .def_173)))
(let ((.def_175 (and .def_8 .def_174)))
(let ((.def_176 (or .def_31 .def_175)))
(let ((.def_186 (and .def_176 .def_185)))
(let ((.def_188 (and .def_186 .def_187)))
(let ((.def_34 (not b.counter.3__AT0)))
(let ((.def_189 (or .def_34 .def_188)))
(let ((.def_200 (and .def_189 .def_199)))
(let ((.def_166 (* (- 1.0) speed_loss__AT0)))
(let ((.def_167 (+ 1.0 .def_166)))
(let ((.def_165 (* (- 1.0) b.speed_y__AT0)))
(let ((.def_168 (* .def_165 .def_167)))
(let ((.def_169 (= b.speed_y__AT1 .def_168)))
(let ((.def_201 (and .def_169 .def_200)))
(let ((.def_164 (not .def_163)))
(let ((.def_202 (or .def_164 .def_201)))
(let ((.def_213 (and .def_202 .def_212)))
(let ((.def_215 (and .def_213 .def_214)))
(let ((.def_216 (and .def_141 .def_215)))
(let ((.def_218 (and .def_216 .def_217)))
(let ((.def_219 (or .def_159 .def_218)))
(let ((.def_220 (or b.EVENT.1__AT0 .def_219)))
(let ((.def_151 (* (- 1.0) b.y__AT1)))
(let ((.def_75 (* b.speed_y__AT0 b.delta__AT0)))
(let ((.def_154 (+ .def_75 .def_151)))
(let ((.def_70 (* b.delta__AT0 b.delta__AT0)))
(let ((.def_74 (* .def_70 .def_73)))
(let ((.def_155 (+ .def_74 .def_154)))
(let ((.def_156 (+ b.y__AT0 .def_155)))
(let ((.def_157 (= .def_156 0.0 )))
(let ((.def_145 (* (- 1.0) b.speed_y__AT1)))
(let ((.def_143 (* b.delta__AT0 .def_72)))
(let ((.def_146 (+ .def_143 .def_145)))
(let ((.def_147 (+ b.speed_y__AT0 .def_146)))
(let ((.def_148 (= .def_147 0.0 )))
(let ((.def_133 (* (- 1.0) b.x__AT1)))
(let ((.def_137 (+ .def_133 b.x__AT0)))
(let ((.def_131 (* b.delta__AT0 b.speed_x__AT0)))
(let ((.def_138 (+ .def_131 .def_137)))
(let ((.def_139 (= .def_138 0.0 )))
(let ((.def_142 (and .def_139 .def_141)))
(let ((.def_149 (and .def_142 .def_148)))
(let ((.def_158 (and .def_149 .def_157)))
(let ((.def_161 (or .def_158 .def_160)))
(let ((.def_221 (and .def_161 .def_220)))
(let ((.def_226 (and .def_221 .def_225)))
(let ((.def_247 (and .def_226 .def_246)))
(let ((.def_256 (and .def_247 .def_255)))
(let ((.def_259 (and .def_256 .def_258)))
(let ((.def_263 (and .def_259 .def_262)))
(let ((.def_264 (and .def_45 .def_263)))
(let ((.def_281 (and .def_264 .def_280)))
(let ((.def_285 (and .def_281 .def_284)))
(let ((.def_81 (* b.delta__AT0 .def_80)))
(let ((.def_82 (+ b.speed_y__AT0 .def_81)))
(let ((.def_99 (<= .def_82 0.0 )))
(let ((.def_100 (not .def_99)))
(let ((.def_97 (<= b.speed_y__AT0 0.0 )))
(let ((.def_122 (or .def_97 .def_100)))
(let ((.def_83 (<= 0.0 .def_82)))
(let ((.def_121 (or .def_83 .def_86)))
(let ((.def_123 (and .def_121 .def_122)))
(let ((.def_124 (or .def_120 .def_123)))
(let ((.def_84 (not .def_83)))
(let ((.def_117 (or .def_84 .def_85)))
(let ((.def_98 (not .def_97)))
(let ((.def_116 (or .def_98 .def_99)))
(let ((.def_118 (and .def_116 .def_117)))
(let ((.def_119 (or .def_115 .def_118)))
(let ((.def_125 (and .def_119 .def_124)))
(let ((.def_112 (and .def_97 .def_99)))
(let ((.def_111 (and .def_83 .def_85)))
(let ((.def_113 (or .def_111 .def_112)))
(let ((.def_76 (+ .def_74 .def_75)))
(let ((.def_77 (+ b.y__AT0 .def_76)))
(let ((.def_91 (<= .def_77 0.0 )))
(let ((.def_105 (not .def_91)))
(let ((.def_89 (<= b.y__AT0 0.0 )))
(let ((.def_106 (or .def_89 .def_105)))
(let ((.def_64 (<= 0.0 b.y__AT0)))
(let ((.def_103 (not .def_64)))
(let ((.def_78 (<= 0.0 .def_77)))
(let ((.def_104 (or .def_78 .def_103)))
(let ((.def_107 (and .def_104 .def_106)))
(let ((.def_101 (or .def_98 .def_100)))
(let ((.def_102 (not .def_101)))
(let ((.def_108 (or .def_102 .def_107)))
(let ((.def_93 (not .def_78)))
(let ((.def_94 (or .def_64 .def_93)))
(let ((.def_90 (not .def_89)))
(let ((.def_92 (or .def_90 .def_91)))
(let ((.def_95 (and .def_92 .def_94)))
(let ((.def_87 (or .def_84 .def_86)))
(let ((.def_88 (not .def_87)))
(let ((.def_96 (or .def_88 .def_95)))
(let ((.def_109 (and .def_96 .def_108)))
(let ((.def_79 (and .def_64 .def_78)))
(let ((.def_110 (and .def_79 .def_109)))
(let ((.def_114 (and .def_110 .def_113)))
(let ((.def_126 (and .def_114 .def_125)))
(let ((.def_127 (and .def_54 .def_126)))
(let ((.def_128 (and .def_62 .def_127)))
(let ((.def_65 (and .def_63 .def_64)))
(let ((.def_48 (or .def_45 .def_47)))
(let ((.def_38 (or .def_26 .def_28)))
(let ((.def_42 (or b.counter.3__AT0 .def_38)))
(let ((.def_39 (or b.counter.2__AT0 .def_38)))
(let ((.def_37 (or .def_28 .def_31)))
(let ((.def_40 (and .def_37 .def_39)))
(let ((.def_41 (or .def_34 .def_40)))
(let ((.def_43 (and .def_41 .def_42)))
(let ((.def_49 (and .def_43 .def_48)))
(let ((.def_66 (and .def_49 .def_65)))
(let ((.def_29 (and .def_26 .def_28)))
(let ((.def_32 (and .def_29 .def_31)))
(let ((.def_35 (and .def_32 .def_34)))
(let ((.def_23 (= b.speed_y__AT0 0.0 )))
(let ((.def_20 (= b.y__AT0 10.0 )))
(let ((.def_15 (= b.time__AT0 0.0 )))
(let ((.def_17 (and .def_15 b.event_is_timed__AT0)))
(let ((.def_21 (and .def_17 .def_20)))
(let ((.def_24 (and .def_21 .def_23)))
(let ((.def_36 (and .def_24 .def_35)))
(let ((.def_67 (and .def_36 .def_66)))
(let ((.def_6 (or .def_4 b.counter.1__AT1)))
(let ((.def_9 (or .def_6 .def_8)))
(let ((.def_11 (or .def_9 b.counter.3__AT1)))
(let ((.def_12 (not .def_11)))
(let ((.def_68 (and .def_12 .def_67)))
(let ((.def_129 (and .def_68 .def_128)))
(let ((.def_286 (and .def_129 .def_285)))
(let ((.def_341 (and .def_286 .def_340)))
.def_341))))))))))))))))))))))))))))))))))))))))))))))))))))))))))))))))))))))))))))))))))))))))))))))))))))))))))))))))))))))))))))))))))))))))))))))))))))))))))))))))))))))))))))))))))))))))))))))))))))))))))))))))))))))))))))))))))))))))))))))))))))))))))))))))))))))))))))))))))))))))))))))))))))))))))
(check-sat)
(exit)
